c Lingeling SAT Solver
c 
c Version ala b02aa1a04343558c4252b5f4a723be021964f652
c 
c Copyright (C) 2010-2012 Armin Biere JKU Linz Austria.
c All rights reserved.
c 
c released Sat Oct 13 14:05:26 CEST 2012
c compiled Sat Feb 16 02:48:12 EST 2013
c 
c gcc (Debian 4.4.5-8) 4.4.5
c -Wall -O3 -DNLGLOG -DNDEBUG -DNCHKSOL -DNLGLPICOSAT 
c Linux greencar2 2.6.32-5-amd64 x86_64
c 
c reading input file p11.cnf
c no embedded options
c found 'p cnf 212930 657947' header
c read 212930 variables, 657947 clauses, 1368354 literals in 0.0 seconds
c
c feature vars 212930
c feature lits.total 1368354
c feature lits.pos 729515
c feature lits.neg 638839
c feature clauses.total 657947
c feature clauses.unit 79806
c feature clauses.bin 463475
c feature clauses.trn 113266
c feature clauses.lrg 1400
c feature cog.val.min 1
c feature cog.val.avg 94904
c feature cog.val.max 204588
c feature cog.var.min 1
c feature cog.var.avg 106466
c feature cog.var.max 212929
c
c
c --abstime=0
c --acts=2
c --actavgmax=120
c --actstdmin=20
c --actstdmax=80
c --agile=23
c --bias=2
c --block=1
c --blkrtc=0
c --blkclslim=2000
c --blkocclim=2000
c --blkmaxeff=2147483647
c --blkmineff=10000000
c --blkreleff=20
c --card=0
c --cce=3
c --ccemaxeff=100000000
c --ccemineff=5000000
c --ccereleff=3
c --check=0
c --cgrclsr=1
c --cgrmaxority=20
c --cgrmaxeff=8000000
c --cgrmineff=200000
c --cgreleff=1
c --cgrexteq=1
c --cgrextand=1
c --cgrextunits=1
c --cgrextite=1
c --cgrextxor=1
c --cliff=1
c --cliffreleff=8
c --cliffmineff=10000000
c --cliffmaxeff=100000000
c --compact=0
c --decompose=1
c --defragint=10000000
c --defragfree=50
c --elim=1
c --elmrtc=0
c --elmblk=1
c --elmclslim=1000
c --elmocclim=1000
c --elmaxeff=100000000
c --elmineff=5000000
c --elmreleff=10
c --sleeponabort=0
c --exitonabort=0
c --flipping=1
c --flipint=2
c --flipdur=50
c --fliptop=1
c --force=0
c --gauss=1
c --gaussextrall=1
c --gaussmaxor=20
c --gaussexptrn=1
c --gaussmaxeff=50000000
c --gaussmineff=2000000
c --gaussreleff=2
c --gluescale=2
c --gluekeep=0
c --inprocessing=1
c --cintinc=10000
c --irrlim=20
c --lift=1
c --lftmaxeff=20000000
c --lftmineff=500000
c --lftreleff=6
c --lhbr=1
c --lkhd=1
c --clim=-1
c --mocint=1000
c --move=2
c --log=-1
c --otfs=1
c --phase=0
c --phaseneginit=0
c --plain=0
c --probe=1
c --prbasicmaxeff=100000000
c --prbasicmineff=1000000
c --prbasicreleff=10
c --prbasic=1
c --prbasicroundlim=9
c --queuemergelim=10000
c --queuefactor=833
c --queueinc=20
c --rmincpen=4
c --seed=0
c --smallirr=90
c --smallve=1
c --smallvevars=12
c --randec=1
c --randecint=1000
c --redfixed=0
c --redlbound=0
c --redlexpfac=10
c --redldoutfac=0
c --redloutinc=10000
c --redlinit=1000
c --redlinc=1000
c --redinoutinc=100
c --redlmininc=10
c --redlmaxinc=200
c --redlminrel=10
c --redlmaxrel=300
c --redlminabs=500
c --redlmaxabs=1000000
c --reduce=1
c --restart=2
c --restartint=5
c --rstinoutinc=110
c --simplify=1
c --simpdelay=100
c --simpen=4
c --sizepen=1000000
c --sizemaxpen=3
c --sortlits=0
c --syncint=111111
c --termint=122222
c --ternres=1
c --ternresrtc=0
c --trnrmineff=4000000
c --trnrmaxeff=40000000
c --trnreleff=10
c --transred=1
c --trdmineff=100000
c --trdmaxeff=2000000
c --trdreleff=10
c --unhide=1
c --unhdextstamp=1
c --unhdhbr=0
c --unhdmaxeff=20000000
c --unhdmineff=1000000
c --unhdreleff=4
c --unhdlnpr=3
c --unhdroundlim=5
c --verbose=1
c --witness=1
c [limits] no conflict limit
c [limits] simplification delayed by 100 to 100 conflicts
c 
c  seconds         irredundant          redundant clauses agility   height
c          variables clauses conflicts large binary ternary    glue         MB
c 
c *    0.0  116466   486879         0       0      0     0  62  0.0   0.0   41
c [cut-width] 160945, max 253562, min4 105288 at 75%, min10 32549 at 89%
c [decision-order] bias 1, old 1
c [queue-schedule-all-variables]
c s    0.0  116466   486879         0       0      0     0  62  0.0   0.0   41
c [simplification-1] limit hit at 100 conflicts
c [simplification-1] simplification penalty of 4
c [ternres-1] limit 4000000 with penalty 0 = 0 + 0
c [ternres-1] all 116466 free variables schedulable
c [ternres-1] 0 ternary resolvents (0 bin, 0 trn)
c [ternres-1] 23181 variables remain 20% (93285 retained)
c [gauss-1] limit 2000000 penalty 0 = 0 + 0
c [gauss-1] extracted 167733 xors of average arity 2.0
c [gauss-1] connected 335471 occurrences of 106973 variables (average 3.1)
c [gauss-1] limit 2000000 penalty 0 = 0 + 0
c d    0.7   53475   241372       100     100      0     0  73  5.6 420.7   20
c [gauss-1] exported 0 unary, 1 binary and 0 ternary equations
c G    0.7   53475   241372       100     100      0     0  73  5.6 420.7   20
c [basicprobe-1] limit 1000000 penalty 0 = 0 + 0
c [basicprobe-1-0] 3985 probes remain 7% after last round
c [basicprobe-1-0] 1 units = 1 failed (100%) + 0 lifted (0%)
c [basicprobe-1-0] removed 1 variables, found 5642 hbrs
c p    0.8   53474   241372       100     100   5642     0  73  5.6 420.7   24
c [cgrclsr-1] limit 200000 penalty 0 = 0 + 0
c [cgrclsr-1] all 53474 free variables schedulable
c [cgrclsr-1] fully completed congruence closure
c [lift-1] limit 500000 with penalty 0 = 0 + 0
c [lift-1] using 53474 probes 100%
c [lift-1] 53449 variables remain 100% (25 retained)
c [cliff-1] limit of 10000000 steps penalty 0 = 0 + 0
c [cliff-1] failed 0, lifted 0
c [unhide-1] limit 1000000 with penalty 0 = 0 + 0
c [unhide-1-1] 0 units, 0 failed, 17064 tauts, 0 hbrs, 45 literals
c u    1.5   53474   224278       100      98  19867     2  73  5.6 420.7   24
c [transred-1] limit 100000 with penalty 0 = 0 + 0
c t    1.5   53474   224278       100      98  19860     2  73  5.6 420.7   24
c [block-1] scheduling all variables this time
c [block-1] scheduled 53474 variables 100%
c [block-1] limit of 10000000 steps penalty 0 = 0 + 0
c [block-1] fully completed blocked clause elimination
c [block-1] transition to [ all 0 rem 0 ] state
c [block-1] eliminated 4402 blocked clauses
c k    1.6   53473   219876       100      98  19860  4401  73  5.6 420.7   20
c [cce-1] scheduling all variables this time
c [cce-1] limit of 10000000 steps penalty 0 = 0 + 0
c [cce-1] incomplete covered clause elimination 47189 not tried 88%
c [cce-1] transition to [ all 1 rem 1 ] state
c [cce-1] eliminated 32 covered clauses
c E    2.0   53473   219844       100      98  26590  4401  73  5.6 420.7   20
c [elim-1] scheduling all variables this time
c [elim-1] scheduled 53473 variables 100%
c [elim-1] limit of 5000000 steps penalty 0 = 0 + 0
c [elim-1] incomplete variable elimination 39039 not tried 73%
c [elim-1] transition to [ all 1 rem 1 ] state
c [elim-1] eliminated 5897 = 11% variables out of 53473
c e    2.9   47576   216397       100      48   8731   566  73  5.6 420.7   20
c [phase-1] phase bias: 1973 positive 14%, 11754 negative 86%
c [simplification-1] removed 68890 variables 59%
c [simplification-1] limit increments divided by 30
c [simplification-1] arithmetic increase of conflict limit interval by 333
c [simplification-1] new irredundant limit 2137238
c [simplification-1] new conflict limit 433
c [simplification-1] simplification penalty reduced to 3
c 1    3.0   47576   216397       315     261   8732   567  39  9.8 962.1   24
c 
c  seconds         irredundant          redundant clauses agility   height
c          variables clauses conflicts large binary ternary    glue         MB
c 
c blkd: 1 bces, 4402 removed, 653566 resolutions, 1846914 steps
c blkd: 4401 blocking literals 1%, 1 pure
c cces: 1 cces, 32 eliminated, 32 ate 100%, 0 abce 0%
c cces: 12568 probed, 0 lifted, 0 failed
c clff: 1 cliffs, 0 lifted, 0 failed
c clff: 3446 decisions, 10020927 steps
c clls: 1 sat, 0 simp, 0 freeze, 0 melt
c clls: 2026301 add, 0 assume,, 0 deref, 0 failed
c clls: 0 cassume, 0 mosat
c coll: 7 gcs, 0 rescored clauses
c cgrs: 1 count, 200000 esteps, 55097 csteps
c cgrs: 0 eqs, 0 units
c cgrs: 0 matched (0 ands 0%, 0 xors 0%, 0 ites 0%)
c cgrs: 0 simplified (0 ands 0%, 0 xors 0%, 0 ites 0%)
c cgrs: 1933 extracted (1561 ands 81%, 372 xors 19%, 0 ites 0%)
c dcps: 2 decompositions, 62991 equivalent 30%
c decs: 3776 decision, 3 random 0.079%
c decs: 0 flipped 0.000% (in 0 phases)
c elms: 1 elims, 5898 eliminated 3%
c elms: 5897 small 100%, 0 large 0%
c elms: 14506 tried small, 5897 succeeded 41%, 8609 failed 59%
c elms: 0 subsumed, 0 strengthened, 0 blocked
c elms: 160831 copies, 115641 resolutions, 317717 ipos
c elms: 0 subchks, 0 strchks
c frcs: 0 computed, 40.7 - 59.3 average min-cut range
c gaus: 1 extractions, 167733 extracted, 2.0 size, 3 max
c gaus: exported 0 units, 1 binary and 0 ternary equations
c gaus: 0 gc, 4000012 steps, 2000006 extr 50%, 2173058 elim 54%
c glue: 9.8 avg, 3.4 scaled avg
c glue: 0 maxredglue=15 (0%)
c lift: 1 phases, 150 probed (50 level1 33%, 100 level2 67%)
c lift: 0 units, 0 equivalences, 0 implications
c hbrs: 26566 hbrs = 26566 trn 100% + 0 lrg 0%, 0 sub 0%
c lrnd: 315 clauses, 255 uips 81%, 26.4 length, 9.8 glue
c ints: 30 luby (1754 steps), 0 inout (0 steps)
c mins: 8324 learned lits, 1% minimized
c move: moved 4434, 34 binary 1%, 4400 ternary 99%
c otfs: str 6 dyn (6 red, 0 irr) 0 drv 0%, 6 rst 100%
c otfs: sub 0 dyn (0 red, 0 irr)
c phas: 1 computed, 13916 set, 1973 pos (14%), 11943 neg (86%)
c prbs: 1 basic, 1030 probed, 1 failed, 0 lifted
c prps: 4371858 props, 79 props/dec
c prps: 7% srch, 93% simp, 0% lkhd
c psns: 106788 searches, 4469 hits, 4% hit rate
c queu: 804 new, 199 del, 104 maximum priority
c queu: 591 merged, 90 collected, 1 gcs
c queu: 321 deprioritized, 19.2 lines on average
c reds: 0 count, 0 reset, 0 acts 0%, 0 exp 0%
c reds: 0 arithmetic 0%, 0 double 0%
c rmbd: 0 removed, 0 red 0%
c rsts: 0 restarts 0%, 29 skipped 100%
c rsts: 0 kept 0.0% average 0.0%
c simp: 1 count (0 ilim 0%, 0 plim 0%, 1 clim 100%)
c trnr: 1 count, 0 bin, 0 trn, 4000000 steps
c tops: 96465 fixed 45%, 0 iterations
c trds: 2 transitive reductions, 7 removed, 0 failed
c trds: 75 nodes, 111 edges, 100799 steps
c unhd: 1 count, 1 rounds, 1177906 steps
c unhd: 2 non-trivial sccs of average size 2.0
c unhd: 0 units, 0 bin, 0 trn, 0 lrg
c unhd: 0 failed, 0 stamp, 0 lits, 0 bin, 0 trn, 0 lrg
c unhd: 17064 tauts, 0 bin 0%, 0 trn 0%, 0 lrg 0%
c unhd: 17064 tauts, 17064 stamp 100%, 0 red 0%
c unhd: 0 hbrs, 0 trn 0%, 0 lrg 0%, 0 red 0%
c unhd: 45 strd, 0 bin 0%, 0 trn 0%, 45 lrg 100%, 45 red 100%
c vars: 47576 remaining 22% and 165354 removed 78% out of 212930
c vars: 96465 fixed 45%, 5898 eliminated 3%, 62991 equivalent 30%
c vsts: 19581755 visits, 5% srch, 95% simp, 0% lkhd
c vsts: 3.4 search visits per propagation 3222.9 per conflict
c wchs: 5474080 pushed, 2602131 enlarged, 12 defrags
c 
c scaledglue  added       reduced       forcing      resolved     conflicts
c 
c all       313 100         0 100       529 100       438 100        22 100
c 
c  0          0   0         0   0<        0   0         0   0         0   0 
c  1          3   1         0   0         4   1         5   1         0   0 
c  2         44  14         0   0        68  13        70  16         3  14 
c  3        146  47<        0   0       162  31       158  36         6  27 
c  4         75  24         0   0       237  45<      128  29<       10  45<
c  5         33  11         0   0        41   8        58  13         3  14 
c  6         12   4         0   0        17   3        19   4         0   0 
c  7          0   0         0   0         0   0         0   0         0   0 
c  8          0   0         0   0         0   0         0   0         0   0 
c  9          0   0         0   0         0   0         0   0         0   0 
c 10          0   0         0   0         0   0         0   0         0   0 
c 11          0   0         0   0         0   0         0   0         0   0 
c 12          0   0         0   0         0   0         0   0         0   0 
c 13          0   0         0   0         0   0         0   0         0   0 
c 14          0   0         0   0         0   0         0   0         0   0 
c 15          0   0         0   0         0   0         0   0         0   0 
c 
c avg             3.4           0.0           3.6           3.5           3.6
c std             1.0           0.0           0.9           1.1           0.9
c 
c 3776 decisions, 315 conflicts, 105.8 conflicts/sec
c 4371858 propagations, 1.5 megaprops/sec
c 3.0 seconds, 47.2 MB
c 
c    0.016   1% analysis
c    0.116   4% block
c    0.000   0% bump
c    0.000   0% card
c    0.384  13% cce
c    0.332  11% cliff
c    0.012   0% cutwidth
c    0.000   0% decide
c    0.000   0% force
c    0.312  10% gc
c    0.120   4% cgrclsr
c    0.204   7% decomp
c    0.092   3% defrag
c    0.912  31% elim
c    0.604  20% gauss
c    0.088   3% lift
c    0.008   0% mincls
c    0.020   1% phase
c    0.056   2% probe
c    0.000   0% reduce
c    0.000   0% restart
c    0.064   2% ternres
c    0.008   0% transred
c    0.084   3% unhide
c ==================================
c    0.016   1% preprocessing     1%
c    2.908  98% inprocessing     99%
c ==================================
c    2.924  98% simplifying
c    0.000   0% lookahead
c    0.044   1% search
c ==================================
c    2.976 100% all
c
s SATISFIABLE
